&bands
prefix='pwscf',
outdir='tmp'
filband='bd.dat'
lp=.true.
/
