&CONTROL
    calculation='bands',! 'scf' 'nscf' 'bands' 'relax' 'md' 'vc-relax' 'vc-md' 
    disk_io='low', 
    prefix='pwscf',
    pseudo_dir='../pseudo', 
    outdir='./tmp', 
    verbosity='high'
    tprnfor=.true., 
    tstress=.true., 
    forc_conv_thr=1.0d-5
/
&SYSTEM
    ibrav= 0,
    celldm(1) = 1.8897261328856432, ! a.u. to Angst
    nat= 2, 
    ntyp= 2,
    !nspin=2 ! 1 2 4
    !noncolin=.true.
    occupations = 'smearing', ! 絕緣體和半導體'fixed' 或 'tetrahedra'；金屬和金屬化的系統選擇 'smearing'
    smearing = 'gauss', 
    degauss = 1.0d-9
    ecutwfc= 50, 
    ecutrho = 500,
/
&ELECTRONS
    electron_maxstep = 100
    conv_thr = 1.0d-9
    mixing_mode = 'plain'
    mixing_beta = 0.8d0
    diagonalization = 'david'
/
&IONS
    ion_dynamics='bfgs'
/
&CELL
    press_conv_thr=0.1
/
ATOMIC_SPECIES
  Si 28.08550 Si.upf
  C  12.01070 C.upf
CELL_PARAMETERS (alat=  1.88972613)
   2.174000000   2.174000000   0.000000000
   0.000000000   2.174000000   2.174000000
   2.174000000   0.000000000   2.174000000
ATOMIC_POSITIONS (crystal)
Si       0.000000000   0.000000000   0.000000000
C        0.250000000   0.250000000   0.250000000
K_POINTS {crystal_b}
3
0.5 0.0 0.5 30
0.0 0.0 0.0 30
0.5 0.5 0.5 1
